
























































































3 25 6 101 
35 112 91 9 60 
66 72 47 85 23 
113 11 100 95 97 
80 4 55 82 
71 110 41 63 
69 29 10 98 
94 5 79 20 106 
8 17 1 43 
59 99 46 83 
51 28 16 34 
81 67 84 21 70 
7 73 50 39 
22 109 87 65 32 
15 40 12 36 
49 75 108 13 
102 2 24 30 
90 68 56 33 45 
19 27 61 44 
107 14 78 53 
86 58 31 77 
38 104 42 37 
64 92 105 96 76 
62 88 74 111 54 
26 57 89 18 0 
48 114 103 93 52 
